//Students
//Objective function and constraints

max: 44154.4y1+44267y11+44268.6y21+44155.7y31+44268.5y41+44270y51+44270.8y61+44272.2y71+44270.4y81+44268y91+44268.9y101+44272.8y111+44154.4y2+44267y12+44268.6y22+44155.7y32+44268.5y42+44270y52+44270.8y62+44272.2y72+44270.4y82+44268y92+44268.9y102+44272.8y112
+44154.4y3+44267y13+44268.6y23+44155.7y33+44268.5y43+44270y53+44270.8y63+44272.2y73+44270.4y83+44268y93+44268.9y103+44272.8y113+44154.4y4+44267y14+44268.6y24+44155.7y34+44268.5y44+44270y54+44270.8y64+44272.2y74+44270.4y84+44268y94+44268.9y104+44272.8y114;

//The constraints
Student1:y1+y2+y3+y4 = 1;
Student2:y11+y12+y13+y14 = 1;
Student3:y21+y22+y23+y24 = 1;
Student4:y31+y32+y33+y34 = 1;
Student5:y41+y42+y43+y44 = 1;
Student6:y51+y52+y53+y54 = 1;
Student7:y61+y62+y63+y64 = 1;
Student8:y71+y72+y73+y74 = 1;
Student9:y81+y82+y83+y84 = 1;
Student10:y91+y92+y93+y94 = 1;
Student11:y101+y102+y103+y104 = 1;
Student12:y111+y112+y113+y114 = 1;
Group1:y1+y11+y21+y31+y41+y51+y61+y71+y81+y91+y101+y111 = 3;
Group2:y2+y12+y22+y32+y42+y52+y62+y72+y82+y92+y102+y112 = 3;
Group3:y3+y13+y23+y33+y43+y53+y63+y73+y83+y93+y103+y113 = 3;
Group4:y4+y14+y24+y34+y44+y54+y64+y74+y84+y94+y104+y114 = 3;

int y1,y2,y3,y4,y11,y12,y13,y14,y21,y22,y23,y24,y31,y32,y33,y34,y41,y42,y43,y44,
y51,y52,y53,y54,y61,y62,y63,y64,y71,y72,y73,y74,y81,y82,y83,y84,y91,y92,y93,y94,
y101,y102,y103,y104,y111,y112,y113,y114;



